137165
76,89,93,12,92,23,80,57,83,34,9,26,50,68,99,19,81,42,98,106,8,97,55,29,30,5,52,65,31,13,88,69,6,40,56,20,16,64,90,17,21,22,62,77,46,86,25,45,2,33,82,72,100,51,35,47,14,61,103,4,15,75,63,32,7,53,84,49,18,70,37,39,73,48,85,11,41,67,54,36,71,95,104,38,105,101,3,94,78,96,60,91,79,43,102,74,24,1,87,44,66,59,10,27,28,58,76